RAW/CMTQ/fspd-mid/CMT7Q.vrp_seed-8.out
900.6920473	63.997	143.491
