RAW/CMTQ/fspd-mid/CMT7Q.vrp_seed-8.sol
Route #1: 75 4 52 46 34 67
Route #2: 6 33 43 41 56 23 63
Route #3: 68 62 22 64 42 1 73
Route #4: 30 74 21 69 61 28 2
Route #5: 9 25 55 18 50 32
Route #6: 26 58 10 31 39 72 12
Route #7: 51 16 49 24 3 44 40 17
Route #8: 36 71 60 70 20 37
Route #9: 45 29 48 47 5 15 57 27
Route #10: 7 14 59 19 54 13
Route #11: 38 65 66 11 53 35 8
Cost 900.692047